   79

C   305.6789999999999736 298.6059999999999945 290.1229999999999905
H   306.0079999999999814 297.5649999999999977 289.9959999999999809
H   305.9479999999999791 299.1639999999999873 289.2040000000000077
C   306.5079999999999814 299.2069999999999936 291.2180000000000177
O   307.6659999999999968 298.8700000000000045 291.4159999999999968
O   305.9379999999999882 300.2049999999999841 291.9119999999999777
H   306.6279999999999859 300.5529999999999973 292.5090000000000146
C   313.5360000000000014 297.8129999999999882 288.2819999999999823
H   314.1170000000000186 296.9039999999999964 288.4859999999999900
H   314.0160000000000196 298.6659999999999968 288.7760000000000105
C   312.1360000000000241 297.6179999999999950 288.8240000000000123
O   311.5489999999999782 298.3679999999999950 289.5799999999999841
O   311.5620000000000118 296.4680000000000177 288.3890000000000100
H   310.6109999999999900 296.4940000000000282 288.6190000000000282
C   309.2490000000000236 302.2280000000000086 285.1739999999999782
C   308.9100000000000250 300.9180000000000064 285.9189999999999827
C   309.3999999999999773 301.0480000000000018 287.3790000000000191
C   308.5810000000000173 300.3799999999999955 288.4800000000000182
N   308.6170000000000186 298.9110000000000014 288.5840000000000032
H   308.6030000000000086 298.5699999999999932 289.5489999999999782
C   308.4929999999999950 298.0330000000000155 287.6220000000000141
C   308.4139999999999873 296.6460000000000150 287.8759999999999764
C   308.2950000000000159 295.6480000000000246 286.9100000000000250
C   308.2590000000000146 294.2900000000000205 287.3469999999999800
C   308.1639999999999873 293.2069999999999936 286.5029999999999859
C   308.2500000000000000 291.8539999999999850 286.9180000000000064
C   308.2389999999999759 290.7810000000000059 286.0439999999999827
C   308.4839999999999804 289.4630000000000223 286.5869999999999891
C   308.5000000000000000 288.2889999999999873 285.8779999999999859
C   308.7579999999999814 286.9320000000000164 286.3419999999999845
C   309.4289999999999736 286.6770000000000209 287.7119999999999891
C   309.8330000000000268 285.1909999999999741 287.8500000000000227
C   308.7309999999999945 284.2330000000000041 287.4180000000000064
C   308.4599999999999795 284.4449999999999932 285.9350000000000023
C   308.3829999999999814 285.8940000000000055 285.5169999999999959
C   307.8029999999999973 286.0450000000000159 284.1349999999999909
H   308.1480000000000246 285.2130000000000223 283.5029999999999859
H   306.7049999999999841 285.9529999999999745 284.1779999999999973
H   308.0350000000000250 286.9820000000000277 283.6200000000000045
H   309.2509999999999764 283.9590000000000032 285.3299999999999841
H   307.5310000000000059 283.9420000000000073 285.6150000000000091
H   309.0169999999999959 283.1870000000000118 287.6109999999999900
H   307.8120000000000118 284.4159999999999968 288.0020000000000095
H   310.7219999999999800 285.0140000000000100 287.2189999999999941
H   310.1449999999999818 285.0049999999999955 288.8890000000000100
C   308.4920000000000186 287.0249999999999773 288.8929999999999723
H   307.6059999999999945 286.3720000000000141 288.9110000000000014
H   309.0280000000000200 286.8809999999999718 289.8450000000000273
H   308.1299999999999955 288.0609999999999786 288.8690000000000282
C   310.7400000000000091 287.4859999999999900 287.8179999999999836
H   311.2860000000000014 287.1870000000000118 288.7269999999999754
H   311.3940000000000055 287.2710000000000150 286.9580000000000268
H   310.5810000000000173 288.5710000000000264 287.8620000000000232
H   308.2540000000000191 288.3690000000000282 284.8190000000000168
H   308.6850000000000023 289.4510000000000218 287.6580000000000155
C   308.0099999999999909 290.9990000000000236 284.5699999999999932
H   307.9250000000000114 290.0629999999999882 284.0090000000000146
H   307.0939999999999941 291.5830000000000268 284.3969999999999914
H   308.8509999999999991 291.5699999999999932 284.1440000000000055
H   308.4049999999999727 291.6569999999999823 287.9830000000000041
H   308.0579999999999927 293.3969999999999914 285.4329999999999927
H   308.3450000000000273 294.1070000000000277 288.4220000000000255
C   308.2420000000000186 295.9630000000000223 285.4390000000000214
H   309.1589999999999918 295.6070000000000277 284.9409999999999741
H   307.3929999999999723 295.4510000000000218 284.9630000000000223
H   308.1419999999999959 297.0330000000000155 285.2239999999999895
H   308.4019999999999868 296.3380000000000223 288.9289999999999736
H   308.4619999999999891 298.4320000000000164 286.6070000000000277
H   308.9460000000000264 300.7060000000000173 289.4590000000000032
H   307.5280000000000200 300.6789999999999736 288.3899999999999864
H   310.4599999999999795 300.7540000000000191 287.4610000000000127
H   309.3550000000000182 302.1170000000000186 287.6510000000000105
H   307.8170000000000073 300.7740000000000009 285.9069999999999823
H   309.3799999999999955 300.0339999999999918 285.4529999999999745
H   310.2490000000000236 302.5690000000000168 285.5059999999999718
H   308.5079999999999814 302.9719999999999800 285.5179999999999723
H   304.5912868969461442 298.6425145780237926 290.1833894944239205
H   313.5068225827062065 297.9324884708223635 287.1989620580696965
H   309.2504677126650563 302.2059843100237799 284.0842233461784758
