   93

C   120.5430000000000064 118.7180000000000035 124.6509999999999962
H   120.3820000000000050 119.4399999999999977 123.8359999999999985
H   120.2720000000000056 119.2279999999999944 125.5840000000000032
C   122.0109999999999957 118.3119999999999976 124.7199999999999989
H   122.6140000000000043 119.1910000000000025 125.0160000000000053
H   122.1640000000000015 117.5750000000000028 125.5139999999999958
C   122.6899999999999977 117.8119999999999976 123.4669999999999987
O   122.3190000000000026 117.9230000000000018 122.3100000000000023
O   123.8619999999999948 117.2009999999999934 123.7570000000000050
H   124.1749999999999972 116.7409999999999997 122.9539999999999935
C   119.5390000000000015 118.8229999999999933 119.3479999999999990
H   119.8730000000000047 117.8509999999999991 119.7409999999999997
H   120.1490000000000009 119.0679999999999978 118.4699999999999989
C   119.7229999999999990 119.9740000000000038 120.3340000000000032
O   119.1689999999999969 121.0409999999999968 120.2469999999999999
O   120.6569999999999965 119.7999999999999972 121.2960000000000065
H   120.9650000000000034 118.8799999999999955 121.3990000000000009
C   127.7079999999999984 118.2759999999999962 119.6620000000000061
H   128.5889999999999986 118.5900000000000034 120.2399999999999949
H   126.9240000000000066 119.0349999999999966 119.8319999999999936
C   127.1689999999999969 116.9909999999999997 120.2249999999999943
O   127.0340000000000060 116.7870000000000061 121.4189999999999969
O   126.7330000000000041 116.0019999999999953 119.4189999999999969
H   126.8370000000000033 116.1189999999999998 118.4479999999999933
C   124.2639999999999958 121.8949999999999960 114.8539999999999992
C   123.7480000000000047 120.7030000000000030 115.6730000000000018
C   123.3640000000000043 121.2150000000000034 117.0739999999999981
C   122.2219999999999942 120.4650000000000034 117.7510000000000048
N   122.5400000000000063 119.1039999999999992 118.2420000000000044
H   122.6640000000000015 119.0100000000000051 119.2480000000000047
C   122.4509999999999934 117.9860000000000042 117.5210000000000008
C   122.4959999999999951 116.6959999999999980 118.0420000000000016
C   122.4429999999999978 115.4879999999999995 117.3089999999999975
C   122.4969999999999999 114.2540000000000049 117.9839999999999947
C   122.6039999999999992 113.0210000000000008 117.3400000000000034
C   122.7330000000000041 111.7870000000000061 117.9899999999999949
C   123.0169999999999959 110.5769999999999982 117.3409999999999940
C   123.1970000000000027 109.4170000000000016 118.1520000000000010
C   123.4879999999999995 108.1490000000000009 117.6919999999999931
C   123.6910000000000025 106.9350000000000023 118.4429999999999978
C   123.8790000000000049 106.9650000000000034 119.9789999999999992
C   124.3509999999999991 105.5840000000000032 120.4839999999999947
C   123.5349999999999966 104.4330000000000069 119.9150000000000063
C   123.7339999999999947 104.3979999999999961 118.4069999999999965
C   123.7019999999999982 105.7450000000000045 117.7330000000000041
C   123.6359999999999957 105.6239999999999952 116.2339999999999947
H   124.2169999999999987 104.7459999999999951 115.9120000000000061
H   122.5969999999999942 105.4189999999999969 115.9230000000000018
H   123.9879999999999995 106.4950000000000045 115.6680000000000064
H   124.7109999999999985 103.9339999999999975 118.1590000000000060
H   122.9959999999999951 103.7429999999999950 117.9120000000000061
H   123.8340000000000032 103.4719999999999942 120.3589999999999947
H   122.4659999999999940 104.5510000000000019 120.1520000000000010
H   125.4080000000000013 105.4569999999999936 120.1880000000000024
H   124.3370000000000033 105.5840000000000032 121.5849999999999937
C   122.5600000000000023 107.3259999999999934 120.7019999999999982
H   121.7870000000000061 106.5610000000000070 120.5370000000000061
H   122.7399999999999949 107.3970000000000056 121.7870000000000061
H   122.1389999999999958 108.2849999999999966 120.3730000000000047
C   124.9950000000000045 107.9639999999999986 120.3689999999999998
H   125.2439999999999998 107.8319999999999936 121.4339999999999975
H   125.9099999999999966 107.7669999999999959 119.7879999999999967
H   124.7189999999999941 109.0169999999999959 120.2259999999999991
H   123.5360000000000014 108.0360000000000014 116.6099999999999994
H   123.0819999999999936 109.5840000000000032 119.2210000000000036
C   123.1889999999999930 110.5420000000000016 115.8439999999999941
H   123.2950000000000017 109.5270000000000010 115.4459999999999980
H   122.3370000000000033 111.0190000000000055 115.3379999999999939
H   124.0949999999999989 111.1050000000000040 115.5660000000000025
H   122.6629999999999967 111.7729999999999961 119.0819999999999936
H   122.6350000000000051 113.0180000000000007 116.2489999999999952
H   122.5049999999999955 114.2600000000000051 119.0769999999999982
C   122.3419999999999987 115.4929999999999950 115.8080000000000069
H   123.2390000000000043 115.0510000000000019 115.3490000000000038
H   121.4809999999999945 114.8960000000000008 115.4729999999999990
H   122.2259999999999991 116.5019999999999953 115.4069999999999965
H   122.5660000000000025 116.6179999999999950 119.1290000000000049
H   122.3149999999999977 118.1560000000000059 116.4519999999999982
H   121.8689999999999998 121.0259999999999962 118.6290000000000049
H   121.3689999999999998 120.3880000000000052 117.0559999999999974
H   124.2480000000000047 121.2399999999999949 117.7349999999999994
H   123.0169999999999959 122.2570000000000050 116.9779999999999944
H   122.8449999999999989 120.2960000000000065 115.1800000000000068
H   124.4800000000000040 119.8799999999999955 115.7570000000000050
H   125.1029999999999944 122.3659999999999997 115.4000000000000057
H   123.4429999999999978 122.6260000000000048 114.8289999999999935
O   126.6590000000000060 117.3689999999999998 123.9969999999999999
H   126.6350000000000051 117.4219999999999970 123.0250000000000057
H   125.7930000000000064 117.6809999999999974 124.2969999999999970
H   119.7775327964572085 117.9469708185931438 124.5633988486408867
H   118.5045433175685332 118.7466876217878422 119.0130734511799773
H   127.9494037749687010 118.2323643322213940 118.5999641503563282
H   124.5687210818827992 121.6916060739859944 113.8274153843365895
